M 1 2 5 9 8 7 6 5 4
4 M 5 3 3 9 8 7 6 5
1 1 M 1 2 5 9 8 7 6
4 3 6 M 5 3 3 9 8 7
5 6 5 8 M 1 2 5 9 8
3 2 1 5 9 M 5 3 3 9
3 4 3 2 1 1 M 2 5 9
6 5 4 3 2 1 3 M 6 5
7 8 9 8 7 6 5 6 M 5
6 5 4 3 2 1 3 2 1 M
